NAME /Users/henri/Research/solvers/instances/idol-instances/robust/collection/cbp_Subramanyam_et_al_2020/CapBud_N20_5/models/uncertain_technology_matrix/
ROWS
 N  OBJ
 L  capacity
 L  c_2470
 L  c_2471
 L  c_2472
 L  c_2473
 L  c_2474
 L  c_2475
 L  c_2476
 L  c_2477
 L  c_2478
 L  c_2479
 L  c_2480
 L  c_2481
 L  c_2482
 L  c_2483
 L  c_2484
 L  c_2485
 L  c_2486
 L  c_2487
 L  c_2488
 L  c_2489
COLUMNS
    MARKER    'MARKER'                 'INTORG'
    x_0        OBJ        -2.88902
    x_0        c_2470     1
    x_0        capacity   0.577805
    x_1        OBJ        -8.99131
    x_1        c_2471     1
    x_1        capacity   1.79826
    x_2        OBJ        -6.54737
    x_2        c_2472     1
    x_2        capacity   1.30947
    x_3        OBJ        -2.53894
    x_3        c_2473     1
    x_3        capacity   0.507789
    x_4        OBJ        -5.91691
    x_4        c_2474     1
    x_4        capacity   1.18338
    x_5        OBJ        -2.96036
    x_5        c_2475     1
    x_5        capacity   0.592072
    x_6        OBJ        -1.57917
    x_6        c_2476     1
    x_6        capacity   0.315834
    x_7        OBJ        -3.4758
    x_7        c_2477     1
    x_7        capacity   0.69516
    x_8        OBJ        -5.38225
    x_8        c_2478     1
    x_8        capacity   1.07645
    x_9        OBJ        -6.48667
    x_9        c_2479     1
    x_9        capacity   1.29733
    x_10       OBJ        -8.34064
    x_10       c_2480     1
    x_10       capacity   1.66813
    x_11       OBJ        -6.72064
    x_11       c_2481     1
    x_11       capacity   1.34413
    x_12       OBJ        -2.98911
    x_12       c_2482     1
    x_12       capacity   0.597821
    x_13       OBJ        -3.32196
    x_13       c_2483     1
    x_13       capacity   0.664392
    x_14       OBJ        -5.55365
    x_14       c_2484     1
    x_14       capacity   1.11073
    x_15       OBJ        -8.4331
    x_15       c_2485     1
    x_15       capacity   1.68662
    x_16       OBJ        -5.23187
    x_16       c_2486     1
    x_16       capacity   1.04637
    x_17       OBJ        -7.60841
    x_17       c_2487     1
    x_17       capacity   1.52168
    x_18       OBJ        -5.70427
    x_18       c_2488     1
    x_18       capacity   1.14085
    x_19       OBJ        -6.44765
    x_19       c_2489     1
    x_19       capacity   1.28953
    y_0        OBJ        -2.31122
    y_0        c_2470     1
    y_0        capacity   0.577805
    y_1        OBJ        -7.19305
    y_1        c_2471     1
    y_1        capacity   1.79826
    y_2        OBJ        -5.2379
    y_2        c_2472     1
    y_2        capacity   1.30947
    y_3        OBJ        -2.03116
    y_3        c_2473     1
    y_3        capacity   0.507789
    y_4        OBJ        -4.73353
    y_4        c_2474     1
    y_4        capacity   1.18338
    y_5        OBJ        -2.36829
    y_5        c_2475     1
    y_5        capacity   0.592072
    y_6        OBJ        -1.26334
    y_6        c_2476     1
    y_6        capacity   0.315834
    y_7        OBJ        -2.78064
    y_7        c_2477     1
    y_7        capacity   0.69516
    y_8        OBJ        -4.3058
    y_8        c_2478     1
    y_8        capacity   1.07645
    y_9        OBJ        -5.18933
    y_9        c_2479     1
    y_9        capacity   1.29733
    y_10       OBJ        -6.67251
    y_10       c_2480     1
    y_10       capacity   1.66813
    y_11       OBJ        -5.37651
    y_11       c_2481     1
    y_11       capacity   1.34413
    y_12       OBJ        -2.39129
    y_12       c_2482     1
    y_12       capacity   0.597821
    y_13       OBJ        -2.65757
    y_13       c_2483     1
    y_13       capacity   0.664392
    y_14       OBJ        -4.44292
    y_14       c_2484     1
    y_14       capacity   1.11073
    y_15       OBJ        -6.74648
    y_15       c_2485     1
    y_15       capacity   1.68662
    y_16       OBJ        -4.18549
    y_16       c_2486     1
    y_16       capacity   1.04637
    y_17       OBJ        -6.08673
    y_17       c_2487     1
    y_17       capacity   1.52168
    y_18       OBJ        -4.56342
    y_18       c_2488     1
    y_18       capacity   1.14085
    y_19       OBJ        -5.15812
    y_19       c_2489     1
    y_19       capacity   1.28953
    MARKER    'MARKER'                 'INTEND'
RHS
    RHS       capacity   53.5596
    RHS       c_2470     1
    RHS       c_2471     1
    RHS       c_2472     1
    RHS       c_2473     1
    RHS       c_2474     1
    RHS       c_2475     1
    RHS       c_2476     1
    RHS       c_2477     1
    RHS       c_2478     1
    RHS       c_2479     1
    RHS       c_2480     1
    RHS       c_2481     1
    RHS       c_2482     1
    RHS       c_2483     1
    RHS       c_2484     1
    RHS       c_2485     1
    RHS       c_2486     1
    RHS       c_2487     1
    RHS       c_2488     1
    RHS       c_2489     1
BOUNDS
 LI BND       x_0        0
 UI BND       x_0        1
 LI BND       x_1        0
 UI BND       x_1        1
 LI BND       x_2        0
 UI BND       x_2        1
 LI BND       x_3        0
 UI BND       x_3        1
 LI BND       x_4        0
 UI BND       x_4        1
 LI BND       x_5        0
 UI BND       x_5        1
 LI BND       x_6        0
 UI BND       x_6        1
 LI BND       x_7        0
 UI BND       x_7        1
 LI BND       x_8        0
 UI BND       x_8        1
 LI BND       x_9        0
 UI BND       x_9        1
 LI BND       x_10       0
 UI BND       x_10       1
 LI BND       x_11       0
 UI BND       x_11       1
 LI BND       x_12       0
 UI BND       x_12       1
 LI BND       x_13       0
 UI BND       x_13       1
 LI BND       x_14       0
 UI BND       x_14       1
 LI BND       x_15       0
 UI BND       x_15       1
 LI BND       x_16       0
 UI BND       x_16       1
 LI BND       x_17       0
 UI BND       x_17       1
 LI BND       x_18       0
 UI BND       x_18       1
 LI BND       x_19       0
 UI BND       x_19       1
 LI BND       y_0        0
 UI BND       y_0        1
 LI BND       y_1        0
 UI BND       y_1        1
 LI BND       y_2        0
 UI BND       y_2        1
 LI BND       y_3        0
 UI BND       y_3        1
 LI BND       y_4        0
 UI BND       y_4        1
 LI BND       y_5        0
 UI BND       y_5        1
 LI BND       y_6        0
 UI BND       y_6        1
 LI BND       y_7        0
 UI BND       y_7        1
 LI BND       y_8        0
 UI BND       y_8        1
 LI BND       y_9        0
 UI BND       y_9        1
 LI BND       y_10       0
 UI BND       y_10       1
 LI BND       y_11       0
 UI BND       y_11       1
 LI BND       y_12       0
 UI BND       y_12       1
 LI BND       y_13       0
 UI BND       y_13       1
 LI BND       y_14       0
 UI BND       y_14       1
 LI BND       y_15       0
 UI BND       y_15       1
 LI BND       y_16       0
 UI BND       y_16       1
 LI BND       y_17       0
 UI BND       y_17       1
 LI BND       y_18       0
 UI BND       y_18       1
 LI BND       y_19       0
 UI BND       y_19       1
ENDATA
